p cnf 150 330
-88 101 3 0
114 -33 34 0
-64 -78 56 0
-118 22 -123 0
64 -102 -47 0
-93 -87 -76 0
-48 -6 -70 0
36 -27 150 0
65 90 106 0
-134 77 115 0
19 -131 -46 0
-65 80 -62 0
-118 43 91 0
79 -32 59 0
116 -112 -1 0
71 -51 -119 0
112 49 -71 0
44 148 128 0
-115 -95 134 0
115 52 -144 0
55 120 76 0
-147 70 135 0
112 88 35 0
-125 129 10 0
130 9 -57 0
-121 3 -95 0
-138 -49 -94 0
-51 -115 33 0
-87 107 137 0
149 81 29 0
95 6 112 0
-108 -24 -21 0
-73 -24 31 0
-36 -59 131 0
-57 -50 -29 0
-20 57 -106 0
38 -58 -49 0
-60 -14 -39 0
-10 107 -55 0
-4 -45 -109 0
-47 131 -123 0
-147 -100 13 0
142 -94 101 0
100 -47 114 0
106 112 -124 0
25 -85 -18 0
65 -102 -101 0
-97 46 13 0
-13 -37 39 0
28 -55 -136 0
52 108 -142 0
-145 51 -37 0
-124 77 42 0
-100 -76 -26 0
110 -59 53 0
-27 96 -93 0
-147 32 59 0
61 -131 66 0
30 -65 133 0
-75 4 -90 0
-26 -109 -59 0
-70 72 -142 0
-94 38 -37 0
-15 -18 -69 0
-53 38 147 0
-6 76 -74 0
143 54 -144 0
-93 12 -116 0
144 149 -138 0
102 35 -78 0
93 -98 -100 0
-144 -88 119 0
-61 135 -74 0
28 -86 93 0
-138 17 49 0
-85 -69 -1 0
89 -64 -20 0
62 9 60 0
-132 -145 -5 0
143 -83 13 0
-89 -138 111 0
11 -58 -46 0
-86 -120 117 0
-9 -89 -39 0
121 -33 25 0
32 -50 -79 0
-102 -141 73 0
46 -131 115 0
66 98 131 0
-74 41 -147 0
59 -67 53 0
-91 -69 141 0
-123 134 -107 0
-117 64 -109 0
19 2 -45 0
-91 -129 27 0
150 102 -119 0
-114 87 138 0
107 3 77 0
131 74 -30 0
-69 122 15 0
65 -58 -74 0
112 105 -131 0
41 -51 108 0
67 -27 30 0
104 -105 70 0
-144 29 61 0
3 93 39 0
-144 46 -62 0
-130 104 -90 0
-131 100 64 0
125 -31 81 0
13 57 1 0
46 -62 48 0
-91 17 29 0
-52 44 9 0
113 -29 10 0
-40 -25 31 0
43 -15 -148 0
13 -102 -81 0
-67 120 -134 0
-112 -61 -108 0
17 87 -147 0
130 25 134 0
95 -60 24 0
-2 44 128 0
103 -78 -114 0
-6 115 120 0
-5 87 3 0
102 24 124 0
40 -79 -107 0
-57 -5 149 0
33 19 -76 0
18 -134 -40 0
-96 -147 -43 0
52 109 2 0
-38 93 84 0
33 -75 -121 0
-26 36 -55 0
84 -129 147 0
129 32 -79 0
-62 -65 -85 0
-21 80 -138 0
-141 111 -82 0
72 147 78 0
12 135 -15 0
132 5 125 0
-49 33 -5 0
64 -133 134 0
-41 -32 21 0
48 61 70 0
-141 46 86 0
-1 16 20 0
-13 -47 59 0
48 -6 84 0
-79 14 -37 0
90 133 28 0
-118 57 14 0
-122 117 89 0
83 108 -48 0
41 114 127 0
-8 111 -2 0
-32 -69 -131 0
-118 -147 -77 0
-145 -82 51 0
-25 -89 123 0
-85 -1 -131 0
123 -74 -88 0
89 -7 21 0
-132 -74 -7 0
24 15 9 0
-67 -150 88 0
48 14 19 0
42 72 -35 0
-1 -145 -101 0
93 58 -41 0
27 131 -72 0
88 54 -131 0
144 -13 -100 0
134 -9 12 0
17 -133 27 0
112 -20 93 0
113 -126 138 0
-59 -88 85 0
-91 63 -21 0
87 120 -45 0
147 -19 64 0
128 -74 132 0
43 129 60 0
-148 110 -124 0
144 10 26 0
147 -129 99 0
-141 -93 43 0
-108 9 148 0
-109 60 -25 0
-130 -104 1 0
77 -59 -16 0
21 46 -109 0
14 -1 141 0
-23 106 -128 0
130 -36 88 0
38 8 -88 0
-69 -132 76 0
115 25 -123 0
-72 102 10 0
-65 -82 -125 0
142 18 87 0
-129 -89 134 0
62 105 99 0
121 101 4 0
66 20 -125 0
-132 -3 -16 0
32 124 127 0
119 114 111 0
32 88 -31 0
-33 43 -40 0
137 -72 -3 0
89 122 93 0
-18 24 -77 0
46 -64 -1 0
129 -40 -6 0
-82 97 119 0
-127 -40 -128 0
-129 -47 -76 0
13 24 5 0
-126 58 -50 0
116 110 30 0
12 62 144 0
70 114 75 0
96 78 -60 0
-136 89 -100 0
90 -127 -110 0
145 36 -23 0
42 -81 -144 0
-48 127 85 0
31 114 -50 0
-75 64 -2 0
3 -49 19 0
147 47 89 0
-53 99 126 0
-20 -111 86 0
49 113 15 0
-70 28 -107 0
-47 84 -129 0
83 -128 64 0
-13 143 15 0
115 -53 -27 0
149 -26 68 0
16 115 104 0
-86 115 39 0
-83 -76 2 0
-105 -52 -93 0
-21 88 -142 0
-124 -61 136 0
-94 -78 4 0
-9 137 40 0
93 -111 63 0
90 27 78 0
131 29 -47 0
51 -37 -70 0
-58 -69 36 0
19 -38 71 0
133 -47 -90 0
-77 -118 30 0
22 149 -126 0
-74 97 88 0
94 -29 82 0
5 -99 -54 0
46 148 81 0
-34 -36 -126 0
-142 8 118 0
-94 88 10 0
-27 91 -110 0
-95 -36 -146 0
-102 115 116 0
89 -116 95 0
144 -100 43 0
129 -63 -29 0
46 14 147 0
-47 94 -74 0
-146 -11 -77 0
63 100 -14 0
77 -120 103 0
-42 -41 47 0
12 -103 132 0
7 14 -89 0
103 -5 39 0
-140 -30 -144 0
120 -59 -32 0
-122 72 19 0
134 123 135 0
-28 -121 126 0
48 57 62 0
14 -45 -112 0
112 -44 -54 0
-81 139 -126 0
-32 -108 -143 0
-139 69 -38 0
-104 133 93 0
147 -5 32 0
x 1 -2 -3 4 9 -11 12 -13 -14 17 18 -19 21 -22 -24 -25 -26 27 -30 -32 -33 34 35 -37 38 41 -45 50 52 55 58 -61 -62 -63 -64 65 -66 -67 68 75 78 -79 81 -82 85 -87 -88 -89 -96 -101 103 -104 -106 110 111 -113 116 117 119 120 125 -129 130 131 134 146 148 -150 0
x 4 -5 10 -12 14 -19 21 22 -24 26 27 -30 -33 -34 35 41 -42 -43 -45 -46 -47 48 -49 50 51 -52 53 55 57 -61 -62 -63 -66 67 71 73 -74 75 77 78 -80 -88 -90 -92 94 95 -96 -101 -103 -104 107 108 -110 -111 112 114 117 -118 -119 -122 123 -125 129 -135 136 139 140 -141 -142 -144 148 0
x -3 6 -10 -11 -12 -15 16 17 -20 -23 -30 32 -33 34 35 -36 -37 38 -40 41 42 43 45 46 47 -48 -49 -50 51 52 56 -57 -59 -63 64 71 -72 -73 76 -77 -79 83 -85 88 89 92 -93 -98 -100 -102 -103 104 -106 108 110 -111 -112 116 -117 -121 122 -123 -124 -125 -126 -127 129 -130 131 132 -134 136 -137 138 140 145 -146 -147 -148 0
x 2 4 6 -7 14 -15 18 -21 -24 -26 -29 30 -32 -35 -36 -37 39 -40 41 -42 -48 50 -51 53 -55 -57 60 -61 63 66 68 72 74 -76 78 -79 -81 -82 83 -84 -85 -88 -95 -96 99 -100 101 -103 -104 108 -109 111 114 -116 117 119 120 -123 -124 -125 126 -128 -132 -133 -134 135 142 143 145 146 0
x 2 3 -7 10 -11 -15 -18 -20 21 23 28 29 -30 -32 33 34 -37 39 -41 42 44 -46 -49 50 -52 53 54 -64 -67 71 -74 76 -80 84 86 87 -89 90 91 93 -94 97 -99 -100 -102 103 106 -107 108 109 111 113 -114 116 -117 118 -120 122 -126 -128 -129 -130 -131 -132 133 -137 138 141 142 143 145 -146 147 149 0
x 1 -4 -8 -9 15 -16 -17 18 19 20 -23 -26 -27 -31 40 41 43 49 -50 51 -54 -57 58 59 -63 65 -67 -68 -74 75 -76 78 -79 -81 -83 -84 -87 -88 89 -90 91 92 -94 -95 -96 -97 98 -102 105 -110 111 114 118 -123 124 127 -128 129 -130 -131 -133 135 137 -138 139 141 -146 148 -149 0
x 2 -3 5 7 -8 -10 11 -12 -15 -16 18 -23 -26 -29 -30 -33 34 35 -37 -45 46 -47 -48 52 54 55 -57 -59 -61 63 -64 66 -67 68 -70 73 75 76 77 80 -81 -82 85 -86 -87 -89 -93 -97 -99 -101 103 -104 105 109 112 115 116 118 119 120 -122 132 133 140 -141 144 145 146 -147 -150 0
x 2 4 6 9 10 14 -15 16 17 -19 -21 -22 23 24 25 -29 -32 33 36 -44 -49 51 -52 -53 56 57 -58 61 62 63 -64 70 -71 -76 77 -79 82 84 85 86 87 -88 89 -90 91 93 94 95 -97 99 100 101 104 -105 106 -107 109 -110 113 -114 -115 -116 -121 123 -126 -130 131 -134 137 138 143 -145 147 0
x -1 -3 5 -6 -7 -13 14 15 -16 -18 19 -20 -24 25 -27 30 32 -38 39 45 46 -49 53 54 -57 58 -60 62 64 -68 72 -74 76 81 83 -84 88 91 -93 -95 -97 98 101 -105 -107 -109 110 -112 116 118 119 120 -123 -124 128 130 133 134 -135 136 -137 138 -140 -141 -144 -146 -147 149 150 0
x 1 2 5 -9 -10 -11 -18 19 20 21 -22 23 -24 29 -30 31 32 -33 36 -37 -38 41 -43 -44 48 51 -53 -54 -55 60 -61 -62 -63 66 67 -69 70 71 73 74 76 77 79 -80 81 -84 -85 86 -88 -91 92 -93 95 -96 97 102 103 -104 106 -108 110 -111 112 114 116 -118 119 -120 122 -123 -126 -127 -128 -132 -133 135 136 137 141 -143 -144 145 -147 148 149 0
x -1 -3 -4 7 8 -11 12 13 14 15 16 -18 -19 -21 22 23 -25 28 29 30 31 33 34 -35 -37 -38 40 41 -42 43 -46 -47 50 54 56 -58 59 61 -62 -63 -64 66 68 71 76 -82 -84 85 -86 88 89 -92 -94 95 -97 101 102 -104 108 109 110 -111 113 -114 -116 117 119 121 126 127 -128 -129 -131 -132 133 134 135 136 -138 144 147 148 -149 0
x -2 3 4 10 12 14 -16 -18 20 -23 -24 26 -27 -30 32 -34 -36 38 40 -41 43 -45 48 -53 -56 -57 58 64 65 -66 68 -69 71 -72 -74 -77 -78 -79 -84 -85 -87 88 93 -97 -98 -99 -109 -110 112 114 -115 116 117 -118 -122 123 -125 127 130 -133 134 -135 -136 -139 140 141 -144 -145 147 -148 -149 -150 0
x 1 -2 -4 -5 6 11 -14 15 18 19 -22 23 -25 -27 -28 -29 -31 34 36 38 40 48 49 50 -58 -60 62 -64 -65 68 70 -71 76 -77 -79 81 -83 -87 -89 -90 -91 93 95 97 98 -99 106 108 -109 -110 -111 -113 116 118 119 -123 -129 -130 -132 133 135 140 -143 -146 148 0
x 1 -4 -6 -7 -8 -11 17 18 19 -23 25 26 -27 28 29 30 34 36 -37 39 -41 -44 -45 46 48 50 52 -53 54 60 -62 63 64 -65 -66 -68 -69 70 71 -75 77 -78 -79 80 83 -84 86 87 -90 -92 -101 -103 107 108 -109 -110 111 -113 -117 -119 -122 123 -124 127 -128 130 -132 -133 135 137 -138 141 142 143 -146 147 148 -149 0
x 1 -4 -5 6 -8 -9 10 -11 12 13 -14 15 -18 -21 25 -26 27 -28 30 34 -38 46 47 -50 -51 54 -57 -61 -63 64 68 -74 -77 -78 -80 82 -83 85 -88 -89 -91 92 -93 94 97 100 101 -102 108 109 110 -111 113 -115 -117 118 -121 -123 126 128 129 -132 -133 134 -136 137 138 -143 -144 147 -149 -150 0
x -1 -3 5 7 8 -11 12 -14 -15 16 17 -19 21 -22 24 -25 27 -29 30 -31 -32 33 -34 35 -39 40 42 -43 -47 -48 -49 51 -54 -55 58 60 -64 66 -67 -70 -71 -73 76 77 79 -80 82 -83 -84 87 88 89 91 94 96 -97 100 101 102 -103 104 -105 107 109 111 113 116 117 119 -120 -122 123 125 -126 127 -129 131 132 135 136 137 -141 -142 -143 144 145 147 150 0
x 2 3 -5 6 7 10 11 -12 13 -15 -16 -18 19 -20 21 -22 23 -27 28 -29 30 -33 34 -35 38 -39 -40 42 46 -47 -49 51 -53 54 56 57 58 59 60 61 62 65 -67 -68 -69 71 73 -74 76 79 -81 82 -83 85 -87 89 90 -91 -96 97 98 -99 103 104 -107 -112 113 -114 117 119 -120 123 -125 128 -131 -132 133 134 137 -142 145 -146 148 150 0
x 1 -2 3 7 8 -12 13 -14 -16 -19 20 22 -25 27 -32 -33 35 36 -37 -38 -39 -40 -41 -42 43 -45 51 -52 54 58 61 -62 64 66 67 68 -69 70 -71 -73 -74 -76 -78 -79 -80 -82 85 86 -87 88 -90 91 93 94 -96 -97 -100 101 -104 -105 -108 -109 -110 111 113 -114 -115 117 118 -123 -124 125 126 131 -133 135 -136 137 139 140 -141 -142 143 145 146 147 0
x -1 3 -4 5 6 9 11 12 15 18 -23 -24 -25 -26 -27 31 33 -35 37 38 39 -45 47 48 50 -51 -53 57 59 61 -64 -66 70 -71 72 -73 -75 -76 -78 79 80 -82 85 86 87 -88 89 90 -91 93 94 -95 96 -99 101 -103 109 -110 111 112 -114 -115 117 -118 120 121 122 123 125 -126 127 130 131 -133 135 136 -139 140 -142 143 147 -150 0
x -2 3 -7 8 -10 11 12 -15 21 -22 24 -31 -32 -34 -38 -40 -41 -43 -45 -46 -50 52 55 -56 -58 61 67 72 -73 74 75 76 -82 -83 86 87 89 -90 -92 -93 98 -100 103 -108 110 111 -113 -116 -118 119 120 -121 122 124 -125 -126 127 131 -132 -133 134 -137 -138 -141 142 146 -147 148 0
x 1 -4 5 6 8 9 13 14 -16 18 -22 -23 24 25 -27 -28 29 -30 -32 -37 38 -40 -47 50 51 -52 -53 54 -58 -59 60 61 -62 -64 65 -67 68 -72 -73 -74 -75 76 -77 79 81 -82 -84 -85 -86 87 -88 89 -90 91 -95 -96 -97 99 101 -102 103 -104 105 106 -107 110 114 116 -124 -127 129 134 136 -137 -139 -140 -142 -143 -145 148 150 0
x -2 3 -5 6 -10 -13 14 -16 -19 -20 21 22 23 -25 -33 -34 -35 41 -42 -43 44 -46 48 49 -50 53 54 58 59 60 -61 -62 -64 -65 -68 69 71 -72 73 -77 -82 84 85 -87 -88 -89 91 -93 -94 -97 -100 114 116 -117 -118 -120 -122 124 125 127 128 131 -133 -135 138 140 -141 -144 -145 149 0
x 1 -3 -4 5 -8 -13 18 -19 -20 -24 -25 -29 -33 -34 -37 -38 -39 -41 43 45 46 -50 -52 -53 54 56 57 -59 -62 63 65 -68 69 -72 73 78 80 -81 82 84 -85 88 89 -90 94 -95 -96 -97 100 -101 -102 -105 -108 -109 113 -116 -119 120 121 122 -123 124 -128 -129 130 -132 133 -134 135 139 -140 147 -148 149 0
x 2 -6 -7 9 15 -16 -17 -19 -23 24 -32 -37 -38 -39 40 -41 -42 46 -51 -52 53 55 60 -61 63 65 67 -68 -69 -71 73 74 -76 -78 -79 -82 -83 -87 90 -95 -97 -101 102 103 -105 108 -109 111 113 114 -116 118 -119 122 -123 -124 127 130 131 -136 -138 139 143 -145 147 148 150 0
x -1 -2 3 4 5 6 8 9 11 -14 -15 -17 -18 -19 -20 21 -25 30 -32 -34 36 -41 -43 45 48 -49 50 -51 54 55 57 -59 60 61 -62 -63 66 67 69 -70 71 -72 -73 74 76 77 78 79 82 83 -84 85 87 -88 -89 -90 -91 -92 -93 -94 -95 -96 98 -99 -100 105 107 -109 -110 -111 -112 113 115 123 -124 -125 131 134 135 136 138 -140 -141 -142 145 148 -149 0
x 1 -2 5 -7 11 15 -19 21 22 -24 27 28 29 30 -31 34 35 38 -39 -40 41 -43 -44 45 46 -47 -48 52 -54 57 -58 61 -63 -64 -66 67 -68 -73 -76 77 -79 -80 -82 83 -85 -89 -91 94 -96 101 103 -105 106 -107 108 -110 -111 -112 115 -117 -118 119 120 -121 -122 126 -127 -129 130 -132 -134 -136 -137 -138 -139 -140 -142 143 0
x -2 3 4 -5 6 7 -9 -14 15 -16 -18 -19 -26 -32 33 -34 -35 -36 -37 43 -45 52 -54 55 -56 -57 58 -60 -63 -64 65 -68 70 71 -72 74 -76 77 78 -79 -80 81 84 86 -90 -91 97 -98 99 -103 104 -106 -107 -111 112 -113 115 -116 118 -120 122 -123 -125 127 130 -131 132 134 -136 -137 140 142 143 -145 -146 147 148 0
x -1 -2 3 -4 -6 7 -8 -12 14 -20 -22 24 25 -26 -27 -31 32 33 -34 37 38 -39 43 46 -47 -48 -49 51 -52 -55 -56 57 -59 -60 -62 63 70 -73 -75 -79 81 -82 83 -85 -87 -89 91 -94 97 99 100 101 102 -103 104 -105 -106 108 109 110 -112 114 -123 -124 -127 130 131 -132 137 -139 140 142 -143 -144 -146 0
x 1 2 -3 -4 7 10 11 13 14 15 -16 18 -19 -20 21 22 23 -24 -26 28 31 35 39 40 42 -44 -47 -48 -50 -51 52 55 -57 -58 -59 -63 64 67 -68 70 -71 72 -74 -75 77 78 -80 81 -84 -85 -91 98 -99 100 -103 -104 -105 -106 -107 -108 -113 114 116 117 119 -121 123 125 127 -129 134 136 -141 -142 143 145 146 -147 149 -150 0
x 3 7 11 -13 -14 19 -20 27 -29 -30 -32 33 -34 -36 -37 40 -42 44 -45 46 -47 -49 50 -51 -53 54 -55 -56 58 61 -62 63 64 -65 67 -68 -69 71 72 73 -75 76 -77 -78 -79 80 -89 -90 -91 93 95 96 -98 -99 -103 -105 106 -107 110 111 -114 -119 -120 121 -127 -128 129 -130 131 -136 137 139 140 142 143 -144 146 148 149 150 0
